int: nrows;
nrows = 8;
set of int: row = 1 .. nrows;
int: ncols;
ncols = 7;
set of int: col = 1 .. ncols;
array[row, col] of var 0 .. 1: v;
array[row, col] of var 0 .. 1: h;
int: n;
n = 6;
set of int: tile = 0 .. n;
array[row, col] of tile: a;
a = 
  array2d(
    1 .. 8, 1 .. 7, 
    [ 2, 5, 1, 1, 5, 5, 4, 3, 2, 4, 0, 5, 5, 4, 3, 3, 6, 2, 2, 1, 4, 1, 0, 
      1, 5, 0, 3, 0, 6, 4, 3, 6, 5, 2, 2, 6, 6, 3, 6, 4, 0, 2, 0, 1, 0, 3, 
      4, 0, 6, 4, 1, 1, 2, 5, 3, 6 ]);
output [];
